(declare-const term_to_project_onto Real)
(declare-const |tmp___1'| Int)
(declare-const y Int)
(declare-const tmp___1 Int)
(declare-const |y'| Int)
(declare-const |x'| Int)
(declare-const term_to_project_onto0 Real)
(declare-const havoc Int)
(declare-const term_to_project_onto1 Real)
(declare-const x Int)
(assert (and (or (<= (+ havoc 1) 0) (<= (+ (- havoc) 1) 0))
               (= (+ |tmp___1'| (- havoc)) 0) (= (+ (- y) |y'| -1) 0)
               (= (+ (- x) |x'| -1) 0)
               (= term_to_project_onto1 (+ |x'| (- x)))
               (= term_to_project_onto0 (+ |y'| (- y)))
               (= term_to_project_onto (+ |tmp___1'| (- tmp___1)))))
(check-sat)
